NAME : rbg034a.tw.3314.tour
COMMENT : Length = 3314
COMMENT : Found by LKH [Keld Helsgaun] Sun Sep 10 01:17:35 2017
TYPE : TOUR
DIMENSION : 35
TOUR_SECTION
1
2
4
3
5
8
9
7
6
10
13
12
14
15
19
11
18
16
20
17
24
29
22
21
25
23
27
28
30
26
31
32
34
33
35
-1
EOF
